NAME: toy
TYPE: TSP
COMMENT: 5-Staedte in Burma (Zaw Win)
DIMENSION: 5
EDGE_WEIGHT_TYPE: GEO
EDGE_WEIGHT_FORMAT: FUNCTION 
DISPLAY_DATA_TYPE: COORD_DISPLAY
NODE_COORD_SECTION
0  30 26 50 40
30  0 24 40 50
26 24  0 24 26
50 40 24  0 30
40 50 26 30  0
EOF